Route #1: 1 44 5 29 6 19 8 40 51 16 1
Route #2: 1 31 53 17 7 33 28 15 14 1
Route #3: 1 35 26 48 47 43 52 25 13 3 42 1
Route #4: 1 24 21 36 30 50 37 2 18 27 46 1
Route #5: 1 11 10 34 22 45 12 1
Route #6: 1 32 20 9 41 49 38 1
Route #7: 1 39 54 4 23 1
cost 1328.3642375885483
